106595
0,9,28,63,72,44,45,53,20,70,79,61,69,13,66,75,25,35,65,19,8,76,57,16,55,50,6,26,32,10,39,73,31,81,74,15,37,1,71,80,59,46,48,33,56,42,2,11,22,54,41,24,68,77,14,60,5,78,29,34,27,7,82,40,51,38,62,49,3,52,58,67,43,21,4,18,47,23,30,64,17,36,12,0